c WARNING: for repeatability, setting FPU to use double precision
d VARIABLES            226176       
d CONSTRAINTS          986791       
c ============================[ Problem Statistics ]=============================
c |                                                                             |
c |  Number of variables:        226176                                         |
c |  Number of clauses:          986791                                         |
c |  Parse time:                   0.14 s                                       |
c |                                                                             |
c ============================[ Search Statistics ]==============================
c | Conflicts |          ORIGINAL         |          LEARNT          | Progress |
c |           |    Vars  Clauses Literals |    Limit  Clauses Lit/Cl |          |
c ===============================================================================
c |       100 |  187524   887161  2150105 |   325292      100     24 | 17.089 % |
c |       250 |  187524   887161  2150105 |   357821      250     54 | 17.089 % |
c |       475 |  187524   887161  2150105 |   393603      475     69 | 17.089 % |
c |       812 |  187524   887161  2150105 |   432964      812     83 | 17.089 % |
c |      1318 |  187524   887161  2150105 |   476260     1318    111 | 17.089 % |
c |      2077 |  187524   887161  2150105 |   523886     2077    110 | 17.089 % |
c |      3216 |  187524   887161  2150105 |   576275     3216    115 | 17.089 % |
c |      4924 |  187524   887161  2150105 |   633902     4924    115 | 17.089 % |
c |      7486 |  187524   887161  2150105 |   697293     7486    152 | 17.089 % |
c |     11330 |  187524   887161  2150105 |   767022    11330    150 | 17.089 % |
c |     17096 |  187524   887161  2150105 |   843724    17096    157 | 17.089 % |
c |     25745 |  187524   887161  2150105 |   928097    25745    166 | 17.089 % |
c |     38719 |  187524   887161  2150105 |  1020906    38719    168 | 17.089 % |
c ===============================================================================
c restarts              : 142
c conflicts             : 47660          (1918 /sec)
c decisions             : 293787         (0.00 % random) (11823 /sec)
c propagations          : 132295645      (5323864 /sec)
c conflict literals     : 8974290        (9.80 % deleted)
d RESTARTS             142
d FAILURES             47660        
d NODES                293787       
d BACKTRACKS           293787       
d PROPAGATIONS         132295645    
d NOGOODSIZE           188.30 
d MEMORY               115.00 
d TIME                 24.8496 

s SATISFIABLE
